NAME : amz0644.123044_118544.tour
COMMENT : Cost = 123044_118544
COMMENT : Found by LKH-AMZ [Keld Helsgaun] Sun May 11 12:38:48 2025
COMMENT : TW viol.: 0 #: 0
TYPE : TOUR
DIMENSION : 153
TOUR_SECTION
107
32
5
134
73
52
49
57
103
96
117
145
86
116
79
131
22
27
46
21
10
89
130
143
2
3
41
28
106
20
95
48
69
18
147
152
91
33
67
39
146
83
93
74
90
115
26
66
50
53
124
118
70
11
144
60
87
108
98
16
72
153
14
81
77
30
135
142
13
100
34
149
45
44
29
17
78
125
19
56
75
37
137
119
80
94
151
35
59
55
140
42
1
92
9
65
148
51
4
104
6
132
102
101
126
128
88
82
114
121
71
62
64
105
113
76
112
123
129
109
43
36
133
110
111
84
68
23
141
63
138
15
139
127
40
122
58
38
25
85
7
47
12
136
31
61
8
150
99
24
120
97
54
-1
EOF
